sat-competition-2018/orders/benchmarks-pi/cms-scheel-sha3-order-w2-rp-o1.cnf
c This is a CNF SAT formula in the DIMACS CNF format,
c produced with the bc2cnf translator by Tommi Junttila;
c see http://users.ics.aalto.fi/tjunttil/circuits/index.html
c cidentity <-> 1
c h1out49 <-> 53
c h1r0p49 <-> 53
c h1in43 <-> 53
c h1out48 <-> 54
c h1r0p48 <-> 54
c h1in42 <-> 54
c h1out47 <-> 55
c h1r0p47 <-> 55
c h1in31 <-> 55
c h1out46 <-> 56
c h1r0p46 <-> 56
c h1in30 <-> 56
c h1out45 <-> 57
c h1r0p45 <-> 57
c h1in29 <-> 57
c h1out44 <-> 58
c h1r0p44 <-> 58
c h1in28 <-> 58
c h1out43 <-> 59
c h1r0p43 <-> 59
c h1in17 <-> 59
c h1out42 <-> 60
c h1r0p42 <-> 60
c h1in16 <-> 60
c h1out41 <-> 61
c h1r0p41 <-> 61
c h1in5 <-> 61
c h1out40 <-> 62
c h1r0p40 <-> 62
c h1in4 <-> 62
c h1out39 <-> 63
c h1r0p39 <-> 63
c h1in47 <-> 63
c h1out38 <-> 64
c h1r0p38 <-> 64
c h1in46 <-> 64
c h1out37 <-> 65
c h1r0p37 <-> 65
c h1in35 <-> 65
c h1out36 <-> 66
c h1r0p36 <-> 66
c h1in34 <-> 66
c h1out35 <-> 67
c h1r0p35 <-> 67
c h1in23 <-> 67
c h1out34 <-> 68
c h1r0p34 <-> 68
c h1in22 <-> 68
c h1out33 <-> 69
c h1r0p33 <-> 69
c h1in11 <-> 69
c h1out32 <-> 70
c h1r0p32 <-> 70
c h1in10 <-> 70
c h1out31 <-> 71
c h1r0p31 <-> 71
c h1in9 <-> 71
c h1out30 <-> 72
c h1r0p30 <-> 72
c h1in8 <-> 72
c h1out29 <-> 73
c h1r0p29 <-> 73
c h1in41 <-> 73
c h1out28 <-> 74
c h1r0p28 <-> 74
c h1in40 <-> 74
c h1out27 <-> 75
c h1r0p27 <-> 75
c h1in39 <-> 75
c h1out26 <-> 76
c h1r0p26 <-> 76
c h1in38 <-> 76
c h1out25 <-> 77
c h1r0p25 <-> 77
c h1in27 <-> 77
c h1out24 <-> 78
c h1r0p24 <-> 78
c h1in26 <-> 78
c h1out23 <-> 79
c h1r0p23 <-> 79
c h1in15 <-> 79
c h1out22 <-> 80
c h1r0p22 <-> 80
c h1in14 <-> 80
c h1out21 <-> 81
c h1r0p21 <-> 81
c h1in3 <-> 81
c h1out20 <-> 82
c h1r0p20 <-> 82
c h1in2 <-> 82
c h1out19 <-> 83
c h1r0p19 <-> 83
c h1in45 <-> 83
c h1out18 <-> 84
c h1r0p18 <-> 84
c h1in44 <-> 84
c h1out17 <-> 85
c h1r0p17 <-> 85
c h1in33 <-> 85
c h1out16 <-> 86
c h1r0p16 <-> 86
c h1in32 <-> 86
c h1out15 <-> 87
c h1r0p15 <-> 87
c h1in21 <-> 87
c h1out14 <-> 88
c h1r0p14 <-> 88
c h1in20 <-> 88
c h1out13 <-> 89
c h1r0p13 <-> 89
c h1in19 <-> 89
c h1out12 <-> 90
c h1r0p12 <-> 90
c h1in18 <-> 90
c h1out11 <-> 91
c h1r0p11 <-> 91
c h1in7 <-> 91
c h1out10 <-> 92
c h1r0p10 <-> 92
c h1in6 <-> 92
c h1out9 <-> 93
c h1r0p9 <-> 93
c h1in49 <-> 93
c h1out8 <-> 94
c h1r0p8 <-> 94
c h1in48 <-> 94
c h1out7 <-> 95
c h1r0p7 <-> 95
c h1in37 <-> 95
c h1out6 <-> 96
c h1r0p6 <-> 96
c h1in36 <-> 96
c h1out5 <-> 97
c h1r0p5 <-> 97
c h1in25 <-> 97
c h1out4 <-> 98
c h1r0p4 <-> 98
c h1in24 <-> 98
c h1out3 <-> 99
c h1r0p3 <-> 99
c h1in13 <-> 99
c h1out2 <-> 100
c h1r0p2 <-> 100
c h1in12 <-> 100
c h1out1 <-> 101
c h1r0p1 <-> 101
c h1in1 <-> 101
c h1out0 <-> 102
c h1r0p0 <-> 102
c h1in0 <-> 102
p cnf 102 253
1 0
-2 3 0
-2 4 0
-2 5 0
-2 6 0
-2 7 0
-2 8 0
-2 9 0
-2 10 0
-2 11 0
-2 12 0
-2 13 0
-2 14 0
-2 15 0
-2 16 0
-2 17 0
-2 18 0
-2 19 0
-2 20 0
-2 21 0
-2 22 0
-2 23 0
-2 24 0
-2 25 0
-2 26 0
-2 27 0
-2 28 0
-2 29 0
-2 30 0
-2 31 0
-2 32 0
-2 33 0
-2 34 0
-2 35 0
-2 36 0
-2 37 0
-2 38 0
-2 39 0
-2 40 0
-2 41 0
-2 42 0
-2 43 0
-2 44 0
-2 45 0
-2 46 0
-2 47 0
-2 48 0
-2 49 0
-2 50 0
-2 51 0
-2 52 0
2 -52 -51 -50 -49 -48 -47 -46 -45 -44 -43 -42 -41 -40 -39 -38 -37 -36 -35 -34 -33 -32 -31 -30 -29 -28 -27 -26 -25 -24 -23 -22 -21 -20 -19 -18 -17 -16 -15 -14 -13 -12 -11 -10 -9 -8 -7 -6 -5 -4 -3 0
-2 0
3 93 53 0
3 -93 -53 0
-3 93 -53 0
-3 -93 53 0
4 94 54 0
4 -94 -54 0
-4 94 -54 0
-4 -94 54 0
5 63 55 0
5 -63 -55 0
-5 63 -55 0
-5 -63 55 0
6 64 56 0
6 -64 -56 0
-6 64 -56 0
-6 -64 56 0
7 83 57 0
7 -83 -57 0
-7 83 -57 0
-7 -83 57 0
8 84 58 0
8 -84 -58 0
-8 84 -58 0
-8 -84 58 0
9 59 53 0
9 -59 -53 0
-9 59 -53 0
-9 -59 53 0
10 60 54 0
10 -60 -54 0
-10 60 -54 0
-10 -60 54 0
11 73 61 0
11 -73 -61 0
-11 73 -61 0
-11 -73 61 0
12 74 62 0
12 -74 -62 0
-12 74 -62 0
-12 -74 62 0
13 75 63 0
13 -75 -63 0
-13 75 -63 0
-13 -75 63 0
14 76 64 0
14 -76 -64 0
-14 76 -64 0
-14 -76 64 0
15 95 65 0
15 -95 -65 0
-15 95 -65 0
-15 -95 65 0
16 96 66 0
16 -96 -66 0
-16 96 -66 0
-16 -96 66 0
17 67 65 0
17 -67 -65 0
-17 67 -65 0
-17 -67 65 0
18 68 66 0
18 -68 -66 0
-18 68 -66 0
-18 -68 66 0
19 85 69 0
19 -85 -69 0
-19 85 -69 0
-19 -85 69 0
20 86 70 0
20 -86 -70 0
-20 86 -70 0
-20 -86 70 0
21 71 55 0
21 -71 -55 0
-21 71 -55 0
-21 -71 55 0
22 72 56 0
22 -72 -56 0
-22 72 -56 0
-22 -72 56 0
23 73 57 0
23 -73 -57 0
-23 73 -57 0
-23 -73 57 0
24 74 58 0
24 -74 -58 0
-24 74 -58 0
-24 -74 58 0
25 77 75 0
25 -77 -75 0
-25 77 -75 0
-25 -77 75 0
26 78 76 0
26 -78 -76 0
-26 78 -76 0
-26 -78 76 0
27 97 77 0
27 -97 -77 0
-27 97 -77 0
-27 -97 77 0
28 98 78 0
28 -98 -78 0
-28 98 -78 0
-28 -98 78 0
29 79 67 0
29 -79 -67 0
-29 79 -67 0
-29 -79 67 0
30 80 68 0
30 -80 -68 0
-30 80 -68 0
-30 -80 68 0
31 87 81 0
31 -87 -81 0
-31 87 -81 0
-31 -87 81 0
32 88 82 0
32 -88 -82 0
-32 88 -82 0
-32 -88 82 0
33 89 83 0
33 -89 -83 0
-33 89 -83 0
-33 -89 83 0
34 90 84 0
34 -90 -84 0
-34 90 -84 0
-34 -90 84 0
35 85 59 0
35 -85 -59 0
-35 85 -59 0
-35 -85 59 0
36 86 60 0
36 -86 -60 0
-36 86 -60 0
-36 -86 60 0
37 87 79 0
37 -87 -79 0
-37 87 -79 0
-37 -87 79 0
38 88 80 0
38 -88 -80 0
-38 88 -80 0
-38 -88 80 0
39 99 89 0
39 -99 -89 0
-39 99 -89 0
-39 -99 89 0
40 100 90 0
40 -100 -90 0
-40 100 -90 0
-40 -100 90 0
41 91 69 0
41 -91 -69 0
-41 91 -69 0
-41 -91 69 0
42 92 70 0
42 -92 -70 0
-42 92 -70 0
-42 -92 70 0
43 93 71 0
43 -93 -71 0
-43 93 -71 0
-43 -93 71 0
44 94 72 0
44 -94 -72 0
-44 94 -72 0
-44 -94 72 0
45 95 91 0
45 -95 -91 0
-45 95 -91 0
-45 -95 91 0
46 96 92 0
46 -96 -92 0
-46 96 -92 0
-46 -96 92 0
47 97 61 0
47 -97 -61 0
-47 97 -61 0
-47 -97 61 0
48 98 62 0
48 -98 -62 0
-48 98 -62 0
-48 -98 62 0
49 99 81 0
49 -99 -81 0
-49 99 -81 0
-49 -99 81 0
50 100 82 0
50 -100 -82 0
-50 100 -82 0
-50 -100 82 0
51 101 101 0
51 -101 -101 0
-51 101 -101 0
-51 -101 101 0
52 102 102 0
52 -102 -102 0
-52 102 -102 0
-52 -102 102 0
